FILENAME:   /home/mcs001/s132664/testsets/IP/miplib2017/acc-tight2.mps.gz
SETTINGS:   settings_final_nopeek_norelabel_extend_norestarts
TIMELIMIT:  7200
OUTPUTNAME: final_miplib_symretope_if_extended_generating_set_cpx_v802__settings_final_nopeek_norelabel_extend_norestarts__0__
BINNAME:    bin/sbcs.linux.x86_64.gnu.opt.cpx
BASENAME:   acc-tight2.mps.gz
SEED:       0
@01 /home/mcs001/s132664/testsets/IP/miplib2017/acc-tight2.mps.gz ===========
@02 acc-tight2.mps.gz
@03 1686649285
SCIP version 8.0.2 [precision: 8 byte] [memory: block] [mode: optimized] [LP solver: CPLEX 20.1.0.0] [GitHash: 5f0473c]
Copyright (C) 2002-2022 Konrad-Zuse-Zentrum fuer Informationstechnik Berlin (ZIB)

Symretope propagation methods - (c) Jasper van Doornmalen, Christopher Hojny.
[GitHash: 2fd0484]

reading parameter file <../settings/settings_final_nopeek_norelabel_extend_norestarts.set> ...

Changed settings:
limits/time = 7200
limits/restarts = 0
misc/usesymmetry = 1
constraints/orbisack/sepafreq = -1
constraints/symresack/sepafreq = -1
propagating/symmetry/addsymresacks = TRUE
propagating/symmetry/detectsubgroups = FALSE
propagating/symmetry/relabelsymretopes = 0
propagating/symmetry/extendgenerators = TRUE
propagating/symmetry/ofsymcomptiming = 0
constraints/symretope/sepafreq = -1
constraints/symretope/peek = FALSE


solving problem ...

original problem has 1620 variables (1620 bin, 0 int, 0 impl, 0 cont) and 2520 constraints
presolving:
(round 1, exhaustive) 0 del vars, 0 del conss, 0 add conss, 0 chg bounds, 0 chg sides, 0 chg coeffs, 2493 upgd conss, 0 impls, 1710 clqs
   (0.1s) probing: 51/1620 (3.1%) - 0 fixings, 0 aggregations, 0 implications, 0 bound changes
   (0.1s) probing aborted: 50/50 successive totally useless probings
   (0.1s) symmetry computation started: requiring (bin +, int +, cont +), (fixed: bin -, int -, cont -)
   (0.1s) symmetry computation finished: 7 generators found (max: 1500, log10 of symmetry group size: 4.6)
(round 2, exhaustive) 0 del vars, 0 del conss, 28 add conss, 0 chg bounds, 0 chg sides, 0 chg coeffs, 2493 upgd conss, 0 impls, 1710 clqs
presolving (3 rounds: 3 fast, 3 medium, 3 exhaustive):
 0 deleted vars, 0 deleted constraints, 28 added constraints, 0 tightened bounds, 0 added holes, 0 changed sides, 0 changed coefficients
 0 implications, 1710 cliques
presolved problem has 1620 variables (1620 bin, 0 int, 0 impl, 0 cont) and 2548 constraints
    387 constraints of type <knapsack>
   1710 constraints of type <setppc>
     27 constraints of type <linear>
     22 constraints of type <orbisack>
      6 constraints of type <symretope>
    396 constraints of type <logicor>
transformed objective value is always integral (scale: 1)
Presolving Time: 0.09

 time | node  | left  |LP iter|LP it/n|mem/heur|mdpt |vars |cons |rows |cuts |sepa|confs|strbr|  dualbound   | primalbound  |  gap   | compl. 
  0.6s|     1 |     0 |  3616 |     - |    34M |   0 |1620 |2625 |2554 |   0 |  0 |  77 |   0 | 0.000000e+00 |      --      |    Inf | unknown
  2.1s|     1 |     0 | 12464 |     - |    35M |   0 |1620 |2628 |2564 |  10 |  1 |  80 |   0 | 0.000000e+00 |      --      |    Inf | unknown
  2.6s|     1 |     0 | 15926 |     - |    35M |   0 |1620 |2629 |2575 |  21 |  2 |  81 |   0 | 0.000000e+00 |      --      |    Inf | unknown
  3.1s|     1 |     0 | 18847 |     - |    36M |   0 |1620 |2633 |2586 |  32 |  3 |  85 |   0 | 0.000000e+00 |      --      |    Inf | unknown
  3.6s|     1 |     0 | 21686 |     - |    36M |   0 |1620 |2634 |2597 |  43 |  4 |  86 |   0 | 0.000000e+00 |      --      |    Inf | unknown
  4.1s|     1 |     0 | 25017 |     - |    36M |   0 |1620 |2640 |2607 |  53 |  5 |  92 |   0 | 0.000000e+00 |      --      |    Inf | unknown
  4.6s|     1 |     0 | 27999 |     - |    37M |   0 |1620 |2641 |2615 |  61 |  6 |  93 |   0 | 0.000000e+00 |      --      |    Inf | unknown
  5.0s|     1 |     0 | 30841 |     - |    37M |   0 |1620 |2643 |2626 |  72 |  7 |  95 |   0 | 0.000000e+00 |      --      |    Inf | unknown
  5.6s|     1 |     0 | 34113 |     - |    38M |   0 |1620 |2644 |2637 |  83 |  8 |  96 |   0 | 0.000000e+00 |      --      |    Inf | unknown
  6.0s|     1 |     0 | 36881 |     - |    38M |   0 |1620 |2645 |2645 |  91 |  9 |  97 |   0 | 0.000000e+00 |      --      |    Inf | unknown
  6.6s|     1 |     0 | 40280 |     - |    38M |   0 |1620 |2647 |2654 | 100 | 10 |  99 |   0 | 0.000000e+00 |      --      |    Inf | unknown
  7.0s|     1 |     0 | 42880 |     - |    39M |   0 |1620 |2648 |2634 | 111 | 11 | 100 |   0 | 0.000000e+00 |      --      |    Inf | unknown
  9.0s|     1 |     2 | 47675 |     - |    39M |   0 |1620 |2651 |2634 | 111 | 11 | 103 |  11 | 0.000000e+00 |      --      |    Inf | unknown
 46.1s|   100 |   101 |257035 |2163.2 |    41M |  13 |1620 |2744 |2609 | 217 |  2 | 196 |  11 | 0.000000e+00 |      --      |    Inf | unknown
 74.9s|   200 |   201 |399138 |1790.2 |    42M |  29 |1620 |2783 |2588 | 321 |  1 | 235 |  11 | 0.000000e+00 |      --      |    Inf | unknown
 time | node  | left  |LP iter|LP it/n|mem/heur|mdpt |vars |cons |rows |cuts |sepa|confs|strbr|  dualbound   | primalbound  |  gap   | compl. 
o81.0s|   225 |   226 |441129 |1777.9 |feaspump|  29 |1620 |2797 |2597 | 337 |  1 | 249 |  11 | 0.000000e+00 | 0.000000e+00 |   0.00%| unknown

SCIP Status        : problem is solved [optimal solution found]
Solving Time (sec) : 80.98
Solving Nodes      : 225
Primal Bound       : +0.00000000000000e+00 (1 solutions)
Dual Bound         : +0.00000000000000e+00
Gap                : 0.00 %
SCIP Status        : problem is solved [optimal solution found]
Total Time         :      80.99
  solving          :      80.98
  presolving       :       0.09 (included in solving)
  reading          :       0.02
  copying          :       0.16 (23 #copies) (minimal 0.01, maximal 0.01, average 0.01)
Original Problem   :
  Problem name     : acc-tight2
  Variables        : 1620 (1620 binary, 0 integer, 0 implicit integer, 0 continuous)
  Constraints      : 2520 initial, 2520 maximal
  Objective        : minimize, 1 non-zeros (abs.min = 1, abs.max = 1)
Presolved Problem  :
  Problem name     : t_acc-tight2
  Variables        : 1620 (1620 binary, 0 integer, 0 implicit integer, 0 continuous)
  Constraints      : 2548 initial, 2797 maximal
  Objective        : minimize, 1 non-zeros (abs.min = 1, abs.max = 1)
  Nonzeros         : 40995 constraint, 6976 clique table
Presolvers         :   ExecTime  SetupTime  Calls  FixedVars   AggrVars   ChgTypes  ChgBounds   AddHoles    DelCons    AddCons   ChgSides   ChgCoefs
  boundshift       :       0.00       0.00      0          0          0          0          0          0          0          0          0          0
  convertinttobin  :       0.00       0.00      0          0          0          0          0          0          0          0          0          0
  domcol           :       0.00       0.00      2          0          0          0          0          0          0          0          0          0
  dualagg          :       0.00       0.00      0          0          0          0          0          0          0          0          0          0
  dualcomp         :       0.00       0.00      0          0          0          0          0          0          0          0          0          0
  dualinfer        :       0.00       0.00      0          0          0          0          0          0          0          0          0          0
  dualsparsify     :       0.01       0.00      1          0          0          0          0          0          0          0          0          0
  gateextraction   :       0.00       0.00      2          0          0          0          0          0          0          0          0          0
  implics          :       0.00       0.00      3          0          0          0          0          0          0          0          0          0
  inttobinary      :       0.00       0.00      0          0          0          0          0          0          0          0          0          0
  qpkktref         :       0.00       0.00      0          0          0          0          0          0          0          0          0          0
  redvub           :       0.00       0.00      0          0          0          0          0          0          0          0          0          0
  sparsify         :       0.01       0.00      1          0          0          0          0          0          0          0          0          0
  stuffing         :       0.00       0.00      0          0          0          0          0          0          0          0          0          0
  trivial          :       0.00       0.00      3          0          0          0          0          0          0          0          0          0
  tworowbnd        :       0.00       0.00      0          0          0          0          0          0          0          0          0          0
  dualfix          :       0.00       0.00      3          0          0          0          0          0          0          0          0          0
  genvbounds       :       0.00       0.00      0          0          0          0          0          0          0          0          0          0
  probing          :       0.01       0.00      1          0          0          0          0          0          0          0          0          0
  pseudoobj        :       0.00       0.00      0          0          0          0          0          0          0          0          0          0
  symmetry         :       0.02       0.00      1          0          0          0          0          0          0         28          0          0
  vbounds          :       0.00       0.00      1          0          0          0          0          0          0          0          0          0
  knapsack         :       0.01       0.00      6          0          0          0          0          0          0          0          0          0
  setppc           :       0.00       0.00      6          0          0          0          0          0          0          0          0          0
  linear           :       0.01       0.00      6          0          0          0          0          0          0          0          0          0
  orbisack         :       0.00       0.00      1          0          0          0          0          0          0          0          0          0
  symretope        :       0.00       0.00      1          0          0          0          0          0          0          0          0          0
  logicor          :       0.00       0.00      6          0          0          0          0          0          0          0          0          0
  benders          :       0.00       0.00      0          0          0          0          0          0          0          0          0          0
  components       :       0.01       0.00      1          0          0          0          0          0          0          0          0          0
  root node        :          -          -      -          1          -          -          1          -          -          -          -          -
Constraints        :     Number  MaxNumber  #Separate #Propagate    #EnfoLP    #EnfoRelax  #EnfoPS    #Check   #ResProp    Cutoffs    DomReds       Cuts    Applied      Conss   Children
  benderslp        :          0          0          0          0        225          0          0         26          0          0          0          0          0          0          0
  integral         :          0          0          0          0        225          0          0         26          0          0          0          0          0          0        450
  knapsack         :        387+       392         11       7077          0          0          0         21         76          7          2          0          0          0          0
  setppc           :       1710+      1716         11       7070          0          0          0          2       1016         27       2722          0          0          0          0
  linear           :         27+        47         11       7043          0          0          0          1        355         10         10          0          0          0          0
  orbisack         :         22         22          0        143          0          0          0          1        104         13          6          0          0          0          0
  symretope        :          6          6          0        360          0          0          0          1         23         13          3          0          0          0          0
  logicor          :        396+       634         11       2404          0          0          0          1        232          7         70          9          5          0          0
  benders          :          0          0          0          0          0          0          0          2          0          0          0          0          0          0          0
  countsols        :          0          0          0          0          0          0          0          2          0          0          0          0          0          0          0
  components       :          0          0          0          0          0          0          0          0          0          0          0          0          0          0          0
Constraint Timings :  TotalTime  SetupTime   Separate  Propagate     EnfoLP     EnfoPS     EnfoRelax   Check    ResProp    SB-Prop
  benderslp        :       0.00       0.00       0.00       0.00       0.00       0.00       0.00       0.00       0.00       0.00
  integral         :       0.96       0.00       0.00       0.00       0.96       0.00       0.00       0.00       0.00       0.00
  knapsack         :       0.03       0.00       0.01       0.02       0.00       0.00       0.00       0.00       0.00       0.00
  setppc           :       0.07       0.00       0.00       0.06       0.00       0.00       0.00       0.00       0.00       0.00
  linear           :       0.01       0.00       0.00       0.01       0.00       0.00       0.00       0.00       0.00       0.00
  orbisack         :       0.00       0.00       0.00       0.00       0.00       0.00       0.00       0.00       0.00       0.00
  symretope        :       0.00       0.00       0.00       0.00       0.00       0.00       0.00       0.00       0.00       0.00
  logicor          :       0.01       0.00       0.00       0.01       0.00       0.00       0.00       0.00       0.00       0.00
  benders          :       0.00       0.00       0.00       0.00       0.00       0.00       0.00       0.00       0.00       0.00
  countsols        :       0.00       0.00       0.00       0.00       0.00       0.00       0.00       0.00       0.00       0.00
  components       :       0.00       0.00       0.00       0.00       0.00       0.00       0.00       0.00       0.00       0.00
Propagators        : #Propagate   #ResProp    Cutoffs    DomReds
  dualfix          :          1          0          0          0
  genvbounds       :          0          0          0          0
  nlobbt           :          0          0          0          0
  obbt             :          0          0          0          0
  probing          :          0          0          0          0
  pseudoobj        :        740          0          0          0
  redcost          :        497          0          0          0
  rootredcost      :          1          0          0          0
  symmetry         :          0          0          0          0
  vbounds          :       2939          0          0          0
Propagator Timings :  TotalTime  SetupTime   Presolve  Propagate    ResProp    SB-Prop
  dualfix          :       0.00       0.00       0.00       0.00       0.00       0.00
  genvbounds       :       0.00       0.00       0.00       0.00       0.00       0.00
  nlobbt           :       0.00       0.00       0.00       0.00       0.00       0.00
  obbt             :       0.00       0.00       0.00       0.00       0.00       0.00
  probing          :       0.01       0.00       0.01       0.00       0.00       0.00
  pseudoobj        :       0.00       0.00       0.00       0.00       0.00       0.00
  redcost          :       0.02       0.00       0.00       0.02       0.00       0.00
  rootredcost      :       0.00       0.00       0.00       0.00       0.00       0.00
  symmetry         :       0.02       0.00       0.02       0.00       0.00       0.00
  vbounds          :       0.00       0.00       0.00       0.00       0.00       0.00
Orbital fixing     :
  vars fixed to 0  :          0
  vars fixed to 1  :          0
Conflict Analysis  :       Time      Calls    Success    DomReds  Conflicts   Literals    Reconvs ReconvLits   Dualrays   Nonzeros   LP Iters   (pool size: [10000,10000])
  propagation      :       0.00         63         61          -        311       40.7          7       16.3          -          -          -
  infeasible LP    :       0.00          8          8          -         48       44.8          0        0.0          8       42.1          0
  bound exceed. LP :       0.00          0          0          -          0        0.0          0        0.0          0        0.0          0
  strong branching :       0.00          0          0          -          0        0.0          0        0.0          -          -          0
  pseudo solution  :       0.00          0          0          -          0        0.0          0        0.0          -          -          -
  applied globally :       0.00          -          -          0        241       27.2          -          -          8          -          -
  applied locally  :          -          -          -          0          0        0.0          -          -          0          -          -
Separators         :   ExecTime  SetupTime      Calls  RootCalls    Cutoffs    DomReds  FoundCuts ViaPoolAdd  DirectAdd    Applied ViaPoolApp  DirectApp      Conss
  cut pool         :       0.00          -         87         21          -          -        373        394          -          -          -          -          -    (maximal pool size:        372)
  aggregation      :       0.03       0.00         37         11          0          0          0          0          0          0          0          0          0
  > cmir           :          -          -          -          -          -          -          -          0          0          0          0          0          -
  > flowcover      :          -          -          -          -          -          -          -          0          0          0          0          0          -
  > knapsackcover  :          -          -          -          -          -          -          -          0          0          0          0          0          -
  cgmip            :       0.00       0.00          0          0          0          0          0          0          0          0          0          0          0
  clique           :       0.04       0.00         11         11          0          0         66        149          0        134        134          0          0
  closecuts        :       0.00       0.00          0          0          0          0          0          0          0          0          0          0          0
  convexproj       :       0.00       0.00          0          0          0          0          0          0          0          0          0          0          0
  disjunctive      :       0.00       0.00          0          0          0          0          0          0          0          0          0          0          0
  eccuts           :       0.00       0.00          0          0          0          0          0          0          0          0          0          0          0
  gauge            :       0.00       0.00          0          0          0          0          0          0          0          0          0          0          0
  gomory           :       1.83       0.00         36         10          0          0        190        140          0         85         85          0          0
  > gomorymi       :          -          -          -          -          -          -          -         54          0         45         45          0          -
  > strongcg       :          -          -          -          -          -          -          -         86          0         40         40          0          -
  impliedbounds    :       0.00       0.00         37         11          0          0          4          7          0          7          7          0          0
  interminor       :       0.00       0.00          0          0          0          0          0          0          0          0          0          0          0
  intobj           :       0.00       0.00          0          0          0          0          0          0          0          0          0          0          0
  mcf              :       0.00       0.00          1          1          0          0          0          0          0          0          0          0          0
  minor            :       0.00       0.00          0          0          0          0          0          0          0          0          0          0          0
  mixing           :       0.00       0.00          0          0          0          0          0          0          0          0          0          0          0
  oddcycle         :       0.00       0.00          0          0          0          0          0          0          0          0          0          0          0
  rapidlearning    :       2.47       0.00         19          1          0          0          0          0          0          0          0          0         60
  rlt              :       0.00       0.00         10         10          0          0          0          0          0          0          0          0          0
  zerohalf         :       0.48       0.00         37         11          0          0        141         98         28        105         82         23          0
Cutselectors       :   ExecTime  SetupTime      Calls  RootCalls   Selected     Forced   Filtered  RootSelec   RootForc   RootFilt 
  hybrid           :       0.00       0.00         47         11        336          1         95        111          0         32
Pricers            :   ExecTime  SetupTime      Calls       Vars
  problem variables:       0.00          -          0          0
Branching Rules    :   ExecTime  SetupTime   BranchLP  BranchExt   BranchPS    Cutoffs    DomReds       Cuts      Conss   Children
  allfullstrong    :       0.00       0.00          0          0          0          0          0          0          0          0
  cloud            :       0.00       0.00          0          0          0          0          0          0          0          0
  distribution     :       0.00       0.00          0          0          0          0          0          0          0          0
  fullstrong       :       0.00       0.00          0          0          0          0          0          0          0          0
  inference        :       0.00       0.00          0          0          0          0          0          0          0          0
  leastinf         :       0.00       0.00          0          0          0          0          0          0          0          0
  lookahead        :       0.00       0.00          0          0          0          0          0          0          0          0
  mostinf          :       0.00       0.00          0          0          0          0          0          0          0          0
  multaggr         :       0.00       0.00          0          0          0          0          0          0          0          0
  nodereopt        :       0.00       0.00          0          0          0          0          0          0          0          0
  pscost           :       0.00       0.00          0          0          0          0          0          0          0          0
  random           :       0.00       0.00          0          0          0          0          0          0          0          0
  relpscost        :       0.96       0.00        225          0          0          0          0          0          0        450
  vanillafullstrong:       0.00       0.00          0          0          0          0          0          0          0          0
Primal Heuristics  :   ExecTime  SetupTime      Calls      Found       Best
  LP solutions     :       0.00          -          -          0          0
  relax solutions  :       0.00          -          -          0          0
  pseudo solutions :       0.00          -          -          0          0
  strong branching :       0.00          -          -          0          0
  actconsdiving    :       0.00       0.00          0          0          0
  adaptivediving   :       1.86       0.00          3          0          0
  alns             :       3.38       0.00          3          0          0
  bound            :       0.00       0.00          0          0          0
  clique           :       0.01       0.00          1          0          0
  coefdiving       :       0.00       0.00          0          0          0
  completesol      :       0.00       0.00          0          0          0
  conflictdiving   :       1.37       0.00          3          0          0
  crossover        :       0.00       0.00          0          0          0
  dins             :       0.00       0.00          0          0          0
  distributiondivin:       1.76       0.00          3          0          0
  dps              :       0.00       0.00          0          0          0
  dualval          :       0.00       0.00          0          0          0
  farkasdiving     :       0.00       0.00          0          0          0
  feaspump         :       1.49       0.00          2          1          1
  fixandinfer      :       0.00       0.00          0          0          0
  fracdiving       :       0.75       0.00          3          0          0
  gins             :       0.00       0.00          0          0          0
  guideddiving     :       0.00       0.00          0          0          0
  indicator        :       0.00       0.00          0          0          0
  intdiving        :       0.00       0.00          0          0          0
  intshifting      :       0.00       0.00          0          0          0
  linesearchdiving :       0.62       0.00          3          0          0
  localbranching   :       0.00       0.00          0          0          0
  locks            :       0.00       0.00          1          0          0
  lpface           :       0.00       0.00          0          0          0
  mpec             :       0.00       0.00          0          0          0
  multistart       :       0.00       0.00          0          0          0
  mutation         :       0.00       0.00          0          0          0
  nlpdiving        :       0.00       0.00          0          0          0
  objpscostdiving  :      11.50       0.00          2          0          0
  octane           :       0.00       0.00          0          0          0
  ofins            :       0.00       0.00          0          0          0
  oneopt           :       0.00       0.00          0          0          0
  padm             :       0.00       0.00          0          0          0
  proximity        :       0.00       0.00          0          0          0
  pscostdiving     :       1.21       0.00          3          0          0
  randrounding     :       0.04       0.00         29          0          0
  rens             :       0.42       0.00          1          0          0
  reoptsols        :       0.00       0.00          0          0          0
  repair           :       0.00       0.00          0          0          0
  rins             :       0.00       0.00          0          0          0
  rootsoldiving    :       2.02       0.00          2          0          0
  rounding         :       0.08       0.00        187          0          0
  shiftandpropagate:       0.00       0.00          1          0          0
  shifting         :       0.06       0.00         68          0          0
  simplerounding   :       0.00       0.00          0          0          0
  subnlp           :       0.00       0.00          0          0          0
  trivial          :       0.00       0.00          2          0          0
  trivialnegation  :       0.00       0.00          0          0          0
  trustregion      :       0.00       0.00          0          0          0
  trysol           :       0.00       0.00          0          0          0
  twoopt           :       0.00       0.00          0          0          0
  undercover       :       0.00       0.00          0          0          0
  vbounds          :       0.01       0.00          1          0          0
  veclendiving     :       1.22       0.00          3          0          0
  zeroobj          :       0.00       0.00          0          0          0
  zirounding       :       0.02       0.00        224          0          0
  other solutions  :          -          -          -          0          -
LP                 :       Time      Calls Iterations  Iter/call   Iter/sec  Time-0-It Calls-0-It    ItLimit
  primal LP        :       0.70         18          0       0.00       0.00       0.70         18
  dual LP          :      46.28        272     342772    1260.19    7406.29       0.00          0
  lex dual LP      :       0.00          0          0       0.00          -
  barrier LP       :       0.00          0          0       0.00          -       0.00          0
  resolve instable :       0.00          0          0       0.00          -
  diving/probing LP:      23.23        735      98357     133.82    4233.86
  strong branching :       0.91         11       6864     624.00    7581.87          -          -         11
    (at root node) :          -         11       6864     624.00          -
  conflict analysis:       0.00          0          0       0.00          -
B&B Tree           :
  number of runs   :          1
  nodes            :        225 (225 internal, 0 leaves)
  feasible leaves  :          0
  infeas. leaves   :          0
  objective leaves :          0
  nodes (total)    :        225 (225 internal, 0 leaves)
  nodes left       :          0
  max depth        :         29
  max depth (total):         29
  backtracks       :         21 (9.3%)
  early backtracks :          0 (0.0%)
  nodes exc. ref.  :          0 (0.0%)
  delayed cutoffs  :          0
  repropagations   :          1 (0 domain reductions, 0 cutoffs)
  avg switch length:       2.59
  switching time   :       0.68
Root Node          :
  First LP value   : +0.00000000000000e+00
  First LP Iters   :       3616 (8038.57 Iter/sec)
  First LP Time    :       0.45
  Final Dual Bound : +0.00000000000000e+00
  Final Root Iters :      42880
  Root LP Estimate : +2.38884676485824e-02
Solution           :
  Solutions found  :          1 (1 improvements)
  First Solution   : +0.00000000000000e+00   (in run 1, after 225 nodes, 80.97 seconds, depth 29, found by <feaspump>)
  Gap First Sol.   :       0.00 %
  Gap Last Sol.    :       0.00 %
  Primal Bound     : +0.00000000000000e+00   (in run 1, after 225 nodes, 80.97 seconds, depth 29, found by <feaspump>)
  Dual Bound       : +0.00000000000000e+00
  Gap              :       0.00 %
Integrals          :      Total       Avg%
  primal-dual      :    8097.49     100.00
  primal-ref       :          -          - (not evaluated)
  dual-ref         :          -          - (not evaluated)
written solution information to file <results/final_miplib_symretope_if_extended_generating_set_cpx_v802__settings_final_nopeek_norelabel_extend_norestarts__0__acc-tight2.mps.gz.sol>
@04 1686649367
